3574804
44,43,76,25,85,74,38,11,64,87,6,7,27,35,70,95,86,13,26,69,68,59,32,107,92,18,72,41,75,98,61,17,49,88,10,48,40,65,37,36,56,8,66,42,60,24,50,55,94,108,14,21,79,22,99,16,52,101,53,104,20,57,103,96,90,46,71,30,54,105,77,39,67,12,102,29,84,73,63,9,97,4,100,62,19,31,83,58,93,106,1,15,80,45,2,23,89,51,3,5,91,47,78,82,33,28,81,34,0
